benchmarks_vrp/CMT12/fixed_c_size/CMT12_6.vrp
NAME: CMT12_6
TYPE: CVRP
COMMENT: 819.56 - Cluster Nr.6
DIMENSION: 10
CAPACITY: 200
EDGE_WEIGHT_TYPE: EUC_2D
NODE_COORD_TYPE: TWOD_COORDS
NODE_COORD_SECTION: 
5 40 50
7 88 30
1 87 30
3 88 35
9 95 30
2 90 35
4 95 35
8 85 25
6 85 35
10 92 30
DEPOT_SECTION: 
5
-1
DEMAND_SECTION: 
3 20
9 30
6 30
1 10
7 10
10 10
8 10
4 20
5 0
2 10
EOF
