benchmarks_vrp/CMT12/fixed_c_size/CMT12_6.tour
NAME: CMT12_6 solution
TYPE: TOUR
TOUR_SECTION:
5 6 3 2 4 9 10 7 1 8 -1
-1
EOF